experiment/data/hgs-res/Vrp-Set-B-n68/Vrp-Set-B-n68-hgs/0.hgs1.vrp
NAME : 0
COMMENT : CVRP Instance
TYPE : CVRP
DIMENSION : 68
EDGE_WEIGHT_TYPE : EUC_2D
CAPACITY : 100
NODE_COORD_SECTION
1	87.0	39.0
2	63.0	45.0
3	5.0	71.0
4	71.0	13.0
5	59.0	63.0
6	45.0	95.0
7	29.0	13.0
8	51.0	79.0
9	7.0	67.0
10	25.0	85.0
11	1.0	7.0
12	72.0	14.0
13	28.0	86.0
14	52.0	86.0
15	46.0	100.0
16	66.0	46.0
17	28.0	90.0
18	16.0	70.0
19	2.0	14.0
20	79.0	21.0
21	14.0	72.0
22	32.0	88.0
23	6.0	72.0
24	73.0	15.0
25	2.0	12.0
26	73.0	21.0
27	12.0	76.0
28	66.0	72.0
29	2.0	16.0
30	38.0	16.0
31	30.0	88.0
32	68.0	54.0
33	32.0	14.0
34	64.0	46.0
35	26.0	88.0
36	62.0	68.0
37	34.0	16.0
38	8.0	68.0
39	77.0	15.0
40	73.0	15.0
41	75.0	15.0
42	8.0	68.0
43	36.0	20.0
44	56.0	82.0
45	26.0	88.0
46	28.0	86.0
47	52.0	84.0
48	60.0	70.0
49	26.0	86.0
50	8.0	72.0
51	76.0	16.0
52	6.0	76.0
53	14.0	72.0
54	78.0	14.0
55	34.0	92.0
56	74.0	14.0
57	64.0	46.0
58	10.0	74.0
59	6.0	8.0
60	28.0	88.0
61	60.0	64.0
62	6.0	78.0
63	46.0	102.0
64	77.0	23.0
65	68.0	66.0
66	58.0	80.0
67	58.0	84.0
68	36.0	14.0
DEMAND_SECTION
1	0
2	10
3	3
4	7
5	18
6	2
7	2
8	23
9	8
10	9
11	22
12	12
13	20
14	21
15	9
16	6
17	11
18	18
19	23
20	10
21	11
22	3
23	10
24	23
25	8
26	16
27	26
28	19
29	9
30	18
31	5
32	23
33	1
34	2
35	21
36	19
37	5
38	14
39	10
40	2
41	16
42	17
43	5
44	16
45	6
46	11
47	14
48	17
49	8
50	48
51	12
52	9
53	6
54	10
55	19
56	22
57	5
58	12
59	5
60	9
61	8
62	21
63	9
64	3
65	8
66	9
67	16
68	17
DEPOT_SECTION
1
-1
EOF
