experiment/data/hgs-res/Vrp-Set-B-n68/Vrp-Set-B-n68-hgs/0.hgs1.tour
Route #1: 67 36 32 6 58 10 24 18 28 33 15
Route #2: 25 23 39 11 3 55 40
Route #3: 63 50 38 53 19
Route #4: 65 43 13 46 7 47
Route #5: 31 4 60 35 27 64
Route #6: 66 5 14 62 54 30 59 12 45
Route #7: 21 16 34 44 48 9 17 42 29
Route #8: 1 52 20 57 51 61 26 56
Route #9: 37 41 8 2 22 49
Cost 1276.2
